NAME          DCAP_2_4_3_300_SS59
ROWS
 N  OBJ
 L  CON1
 L  CON2
 L  CON3
 L  CON4
 L  CON5
 L  CON6
 L  CON7
 L  CON8
 L  CON9
 L  CON10
 L  CON11
 L  CON12
 E  CON13
 E  CON14
 E  CON15
 E  CON16
 E  CON17
 E  CON18
 E  CON19
 E  CON20
 E  CON21
 E  CON22
 E  CON23
 E  CON24
COLUMNS
    x[1,1]    OBJ       6.180167      CON1      1.000000    
    x[1,1]    CON7      -1.000000     CON8      -1.000000   
    x[1,1]    CON9      -1.000000   
    x[1,2]    OBJ       6.563535      CON2      1.000000    
    x[1,2]    CON8      -1.000000     CON9      -1.000000   
    x[1,3]    OBJ       7.443064      CON3      1.000000    
    x[1,3]    CON9      -1.000000   
    x[2,1]    OBJ       6.732585      CON4      1.000000    
    x[2,1]    CON10     -1.000000     CON11     -1.000000   
    x[2,1]    CON12     -1.000000   
    x[2,2]    OBJ       5.039546      CON5      1.000000    
    x[2,2]    CON11     -1.000000     CON12     -1.000000   
    x[2,3]    OBJ       6.054841      CON6      1.000000    
    x[2,3]    CON12     -1.000000   
    MARKER    'MARKER'                'INTORG'
    u[1,1]    OBJ       48.076654     CON1      -1.000000   
    u[1,2]    OBJ       20.066487     CON2      -1.000000   
    u[1,3]    OBJ       32.230043     CON3      -1.000000   
    u[2,1]    OBJ       49.996186     CON4      -1.000000   
    u[2,2]    OBJ       49.466655     CON5      -1.000000   
    u[2,3]    OBJ       27.484319     CON6      -1.000000   
    y[1,1,1]  OBJ       9.607097      CON7      1.323424    
    y[1,1,1]  CON13     1.000000    
    y[1,1,2]  OBJ       9.030847      CON8      0.704337    
    y[1,1,2]  CON14     1.000000    
    y[1,1,3]  OBJ       5.088666      CON9      0.797271    
    y[1,1,3]  CON15     1.000000    
    y[1,2,1]  OBJ       7.762956      CON7      0.636398    
    y[1,2,1]  CON16     1.000000    
    y[1,2,2]  OBJ       5.508186      CON8      0.717920    
    y[1,2,2]  CON17     1.000000    
    y[1,2,3]  OBJ       9.439880      CON9      1.181587    
    y[1,2,3]  CON18     1.000000    
    y[1,3,1]  OBJ       8.209146      CON7      1.064102    
    y[1,3,1]  CON19     1.000000    
    y[1,3,2]  OBJ       8.616938      CON8      0.927443    
    y[1,3,2]  CON20     1.000000    
    y[1,3,3]  OBJ       6.793778      CON9      1.254523    
    y[1,3,3]  CON21     1.000000    
    y[1,4,1]  OBJ       5.538853      CON7      1.436946    
    y[1,4,1]  CON22     1.000000    
    y[1,4,2]  OBJ       8.864755      CON8      1.306374    
    y[1,4,2]  CON23     1.000000    
    y[1,4,3]  OBJ       9.278646      CON9      0.856456    
    y[1,4,3]  CON24     1.000000    
    y[2,1,1]  OBJ       9.039845      CON10     1.323424    
    y[2,1,1]  CON13     1.000000    
    y[2,1,2]  OBJ       8.624315      CON11     0.704337    
    y[2,1,2]  CON14     1.000000    
    y[2,1,3]  OBJ       8.055381      CON12     0.797271    
    y[2,1,3]  CON15     1.000000    
    y[2,2,1]  OBJ       8.631229      CON10     0.636398    
    y[2,2,1]  CON16     1.000000    
    y[2,2,2]  OBJ       7.525476      CON11     0.717920    
    y[2,2,2]  CON17     1.000000    
    y[2,2,3]  OBJ       5.700461      CON12     1.181587    
    y[2,2,3]  CON18     1.000000    
    y[2,3,1]  OBJ       8.836839      CON10     1.064102    
    y[2,3,1]  CON19     1.000000    
    y[2,3,2]  OBJ       5.452860      CON11     0.927443    
    y[2,3,2]  CON20     1.000000    
    y[2,3,3]  OBJ       5.390948      CON12     1.254523    
    y[2,3,3]  CON21     1.000000    
    y[2,4,1]  OBJ       6.705068      CON10     1.436946    
    y[2,4,1]  CON22     1.000000    
    y[2,4,2]  OBJ       7.129664      CON11     1.306374    
    y[2,4,2]  CON23     1.000000    
    y[2,4,3]  OBJ       8.660388      CON12     0.856456    
    y[2,4,3]  CON24     1.000000    
    z[1,1]    OBJ       935.814361    CON13     1.000000    
    z[1,2]    OBJ       951.953836    CON14     1.000000    
    z[1,3]    OBJ       618.546660    CON15     1.000000    
    z[2,1]    OBJ       834.704232    CON16     1.000000    
    z[2,2]    OBJ       564.396316    CON17     1.000000    
    z[2,3]    OBJ       774.082805    CON18     1.000000    
    z[3,1]    OBJ       901.197692    CON19     1.000000    
    z[3,2]    OBJ       541.555858    CON20     1.000000    
    z[3,3]    OBJ       691.038687    CON21     1.000000    
    z[4,1]    OBJ       666.043158    CON22     1.000000    
    z[4,2]    OBJ       684.983209    CON23     1.000000    
    z[4,3]    OBJ       906.462086    CON24     1.000000    
    MARKER    'MARKER'                 'INTEND'
RHS
    RHS       CON1      -0.000000     CON2      -0.000000   
    RHS       CON3      -0.000000     CON4      -0.000000   
    RHS       CON5      -0.000000     CON6      -0.000000   
    RHS       CON7      -0.000000     CON8      -0.000000   
    RHS       CON9      -0.000000     CON10     -0.000000   
    RHS       CON11     -0.000000     CON12     -0.000000   
    RHS       CON13     1.000000      CON14     1.000000    
    RHS       CON15     1.000000      CON16     1.000000    
    RHS       CON17     1.000000      CON18     1.000000    
    RHS       CON19     1.000000      CON20     1.000000    
    RHS       CON21     1.000000      CON22     1.000000    
    RHS       CON23     1.000000      CON24     1.000000    
BOUNDS
 BV BOUND     u[1,1]  
 BV BOUND     u[1,2]  
 BV BOUND     u[1,3]  
 BV BOUND     u[2,1]  
 BV BOUND     u[2,2]  
 BV BOUND     u[2,3]  
 BV BOUND     y[1,1,1]
 BV BOUND     y[1,1,2]
 BV BOUND     y[1,1,3]
 BV BOUND     y[1,2,1]
 BV BOUND     y[1,2,2]
 BV BOUND     y[1,2,3]
 BV BOUND     y[1,3,1]
 BV BOUND     y[1,3,2]
 BV BOUND     y[1,3,3]
 BV BOUND     y[1,4,1]
 BV BOUND     y[1,4,2]
 BV BOUND     y[1,4,3]
 BV BOUND     y[2,1,1]
 BV BOUND     y[2,1,2]
 BV BOUND     y[2,1,3]
 BV BOUND     y[2,2,1]
 BV BOUND     y[2,2,2]
 BV BOUND     y[2,2,3]
 BV BOUND     y[2,3,1]
 BV BOUND     y[2,3,2]
 BV BOUND     y[2,3,3]
 BV BOUND     y[2,4,1]
 BV BOUND     y[2,4,2]
 BV BOUND     y[2,4,3]
 BV BOUND     z[1,1]  
 BV BOUND     z[1,2]  
 BV BOUND     z[1,3]  
 BV BOUND     z[2,1]  
 BV BOUND     z[2,2]  
 BV BOUND     z[2,3]  
 BV BOUND     z[3,1]  
 BV BOUND     z[3,2]  
 BV BOUND     z[3,3]  
 BV BOUND     z[4,1]  
 BV BOUND     z[4,2]  
 BV BOUND     z[4,3]  
ENDATA
